problems/GracefulWheelGraphs/GracefulWheelGraphs-models/compact/O2/lingeling/model-n19-solution000001.eprime-solution
language ESSENCE' 1.0

letting colouring_Function1D be [24, 0, 11, 2, 25, 33, 13, 1, 4, 8, 9, 31, 3, 22, 5, 7, 17, 32, 6, 38; int(0..19)]
letting edgeID_Function1D be
        [24, 11, 9, 23, 8, 20, 12, 3, 4, 1, 22, 28, 19, 17, 2, 10, 15, 26, 18, 14, 38, 27, 36, 13, 5, 25, 37, 34, 30,
         29, 7, 35, 16, 33, 31, 21, 6, 32; int(0..37)]
